NAME : in_house_9_0
TYPE : TSP
DIMENSION : 9
EDGE_WEIGHT_TYPE : EXPLICIT
EDGE_WEIGHT_FORMAT : UPPER_ROW
COMMENT : INVERSION_SHIFT=2
EDGE_WEIGHT_SECTION
62
53
62
76
61
70
27
11
2
56
44
18
74
13
57
70
76
66
74
49
2
65
14
29
35
40
9
44
27
45
31
69
29
35
43
25
